n=13;
m=66;
k=4;
initial_edges=[
(1, 5),
(1, 10),
(1, 9),
(1, 7),
(1, 12),
(1, 11),
(1, 2),
(1, 13),
(1, 4),
(1, 8),
(1, 3),
(2, 7),
(2, 10),
(2, 5),
(2, 3),
(2, 13),
(2, 4),
(2, 9),
(2, 11),
(3, 13),
(3, 6),
(3, 10),
(3, 4),
(3, 5),
(3, 8),
(3, 12),
(3, 9),
(3, 7),
(3, 11),
(4, 11),
(4, 5),
(4, 7),
(4, 13),
(4, 10),
(4, 6),
(4, 12),
(5, 13),
(5, 11),
(5, 8),
(5, 7),
(5, 9),
(5, 12),
(5, 10),
(5, 6),
(6, 13),
(6, 7),
(6, 10),
(6, 8),
(6, 9),
(6, 12),
(7, 9),
(7, 10),
(7, 11),
(8, 11),
(8, 12),
(8, 10),
(8, 9),
(9, 13),
(9, 10),
(9, 11),
(9, 12),
(10, 12),
(10, 11),
(10, 13),
(11, 12),
(12, 13),
];